Data path: /scratch/opt/lxu/CFLG/benchmarks/tree_A
Instance: treeA.200.30
Result path: /scratch/opt/lxu/CFLG/results/tree_A
Solver: Gurobi
Time limit: 7200
Formulation: LEVFP
Cover: Large
julia --project=. src/main.jl /scratch/opt/lxu/CFLG/benchmarks/tree_A treeA.200.30 /scratch/opt/lxu/CFLG/results/tree_A Gurobi 7200 LEVFP Large
The latest version of Julia in the `release` channel is 1.11.5+0.x64.linux.gnu. You currently have `1.11.4+0.x64.linux.gnu` installed. Run:

  juliaup update

in your terminal shell to install Julia 1.11.5+0.x64.linux.gnu and update the `release` channel to that version.
/scratch/opt/lxu/CFLG/benchmarks/tree_A Gurobi 7200.0 /scratch/opt/lxu/CFLG/results/tree_A treeA.200.30 LEVFP Large
/scratch/opt/lxu/CFLG/benchmarks/tree_A/treeA.200.30

 read graph
data loaded

problem_graph/original graph: node: 200/200 edge: 229/229 dlt: 3.0113703010947375 break_avg_len: 1.5056851505473687 break_max_len: 1.995483602652346elapsed CPU time: 0.031358 seconds
Set parameter TokenServer to value "solice01.zib.de"
Set parameter Threads to value 1
Set parameter OutputFlag to value 1
Set parameter MIPGap to value 0.0001
Set parameter MIPGapAbs to value 0.999998
Set parameter TimeLimit to value 7199.968642

 model loaded

Gurobi Optimizer version 12.0.1 build v12.0.1rc0 (linux64 - "Debian GNU/Linux 12 (bookworm)")

CPU model: Intel(R) Xeon(R) Gold 5222 CPU @ 3.80GHz, instruction set [SSE2|AVX|AVX2|AVX512]
Thread count: 8 physical cores, 16 logical processors, using up to 1 threads

Non-default parameters:
TimeLimit  7199.968642
MIPGapAbs  0.999998
Threads  1

Optimize a model with 9694 rows, 4304 columns and 26330 nonzeros
Model fingerprint: 0xe873de6e
Variable types: 429 continuous, 3875 integer (3875 binary)
Coefficient statistics:
  Matrix range     [1e-06, 4e+00]
  Objective range  [1e+00, 1e+00]
  Bounds range     [1e+00, 2e+00]
  RHS range        [1e+00, 5e+00]
Found heuristic solution: objective 128.0000000
Presolve removed 2794 rows and 388 columns
Presolve time: 0.24s
Presolved: 6900 rows, 3916 columns, 31817 nonzeros
Variable types: 428 continuous, 3488 integer (3488 binary)

Root relaxation: objective 3.746667e+01, 3077 iterations, 0.06 seconds (0.06 work units)

    Nodes    |    Current Node    |     Objective Bounds      |     Work
 Expl Unexpl |  Obj  Depth IntInf | Incumbent    BestBd   Gap | It/Node Time

     0     0   37.46667    0  243  128.00000   37.46667  70.7%     -    0s
H    0     0                      54.0000000   37.46667  30.6%     -    0s
H    0     0                      50.0000000   37.46667  25.1%     -    0s
H    0     0                      48.0000000   37.46667  21.9%     -    0s
H    0     0                      45.0000000   37.46667  16.7%     -    0s
     0     0   38.66667    0  363   45.00000   38.66667  14.1%     -    0s
H    0     0                      44.0000000   38.66667  12.1%     -    0s
     0     0   38.66667    0  296   44.00000   38.66667  12.1%     -    0s
     0     0   39.00000    0  320   44.00000   39.00000  11.4%     -    0s
     0     0   39.00000    0  307   44.00000   39.00000  11.4%     -    0s
     0     0   39.00000    0  217   44.00000   39.00000  11.4%     -    0s
H    0     0                      43.0000000   39.00000  9.30%     -    0s
H    0     0                      42.0000000   39.00000  7.14%     -    0s
     0     0   39.00000    0  292   42.00000   39.00000  7.14%     -    0s
     0     0   39.00000    0   61   42.00000   39.00000  7.14%     -    1s
     0     0   39.00000    0   77   42.00000   39.00000  7.14%     -    1s
     0     0   39.00000    0   38   42.00000   39.00000  7.14%     -    1s
H    0     0                      41.0000000   39.00000  4.88%     -    1s
     0     0   39.00000    0   38   41.00000   39.00000  4.88%     -    1s
     0     0   39.00000    0    6   41.00000   39.00000  4.88%     -    1s
     0     0   39.00000    0  125   41.00000   39.00000  4.88%     -    1s
     0     0   39.00000    0   91   41.00000   39.00000  4.88%     -    1s
H    0     0                      40.0000000   39.00000  2.50%     -    1s
     0     0   39.00000    0  139   40.00000   39.00000  2.50%     -    1s
     0     0   39.00000    0  139   40.00000   39.00000  2.50%     -    1s
     0     0   39.00000    0  115   40.00000   39.00000  2.50%     -    1s
*    0     0               0      39.0000000   39.00000  0.00%     -    2s

Explored 1 nodes (28669 simplex iterations) in 2.08 seconds (1.72 work units)
Thread count was 1 (of 16 available processors)

Solution count 10: 39 40 41 ... 54

Optimal solution found (tolerance 1.00e-04)
Warning: max constraint violation (1.1788e-06) exceeds tolerance
Best objective 3.900000000000e+01, best bound 3.900000000000e+01, gap 0.0000%

User-callback calls 1359, time in user-callback 0.00 sec
Stat(MathOptInterface.OPTIMAL, 39.0, 39.0, 0.0, 6.91679760277923e-310, 0.031358, 2.080483913421631, 1, Main.CFLG.LEVFP, "", #undef)
